(set-logic QF_LIA)
(declare-const x1 Int)
(declare-const x2 Int)
(declare-const x3 Int)
(declare-const x4 Int)
(declare-const x5 Int)
(assert (>= (+ (* 3 x1) (* 2 x2)) 10))
(assert (>= (+ (* 2 x1) (* 5 x3)) 15))
(assert (>= (+ x2 (* 4 x4)) 8))
(assert (>= (+ x3 x5) 5))
(assert (<= (+ x1 x2 x3 x4 x5) 20))
(assert (>= x1 0))
(assert (>= x2 0))
(assert (>= x3 0))
(assert (>= x4 0))
(assert (>= x5 0))
(check-sat)
